; benchmark generated from python API
(set-info :status unknown)
(declare-fun x_months () Int)
(declare-fun x_beta () Int)
(assert
 (<= (- 1202) x_months))
(assert
 (>= 1209 x_months))
(assert
 (let ((?x2338 (mod x_months 48)))
 (let ((?x18 ((as const (Array Int Int)) 0)))
 (let ((?x20 (store ?x18 0 31)))
 (let ((?x23 (store ?x20 1 30)))
 (let ((?x25 (store ?x23 2 31)))
 (let ((?x26 (store ?x25 3 30)))
 (let ((?x28 (store ?x26 4 31)))
 (let ((?x30 (store ?x28 5 31)))
 (let ((?x32 (store ?x30 6 30)))
 (let ((?x34 (store ?x32 7 31)))
 (let ((?x36 (store ?x34 8 30)))
 (let ((?x38 (store ?x36 9 31)))
 (let ((?x40 (store ?x38 10 31)))
 (let ((?x43 (store ?x40 11 28)))
 (let ((?x44 (store ?x43 12 31)))
 (let ((?x46 (store ?x44 13 30)))
 (let ((?x48 (store ?x46 14 31)))
 (let ((?x50 (store ?x48 15 30)))
 (let ((?x52 (store ?x50 16 31)))
 (let ((?x54 (store ?x52 17 31)))
 (let ((?x56 (store ?x54 18 30)))
 (let ((?x58 (store ?x56 19 31)))
 (let ((?x60 (store ?x58 20 30)))
 (let ((?x62 (store ?x60 21 31)))
 (let ((?x64 (store ?x62 22 31)))
 (let ((?x66 (store ?x64 23 28)))
 (let ((?x68 (store ?x66 24 31)))
 (let ((?x70 (store ?x68 25 30)))
 (let ((?x72 (store ?x70 26 31)))
 (let ((?x74 (store ?x72 27 30)))
 (let ((?x75 (store ?x74 28 31)))
 (let ((?x77 (store ?x75 29 31)))
 (let ((?x78 (store ?x77 30 30)))
 (let ((?x79 (store ?x78 31 31)))
 (let ((?x81 (store ?x79 32 30)))
 (let ((?x83 (store ?x81 33 31)))
 (let ((?x85 (store ?x83 34 31)))
 (let ((?x87 (store ?x85 35 28)))
 (let ((?x89 (store ?x87 36 31)))
 (let ((?x91 (store ?x89 37 30)))
 (let ((?x93 (store ?x91 38 31)))
 (let ((?x95 (store ?x93 39 30)))
 (let ((?x97 (store ?x95 40 31)))
 (let ((?x99 (store ?x97 41 31)))
 (let ((?x101 (store ?x99 42 30)))
 (let ((?x103 (store ?x101 43 31)))
 (let ((?x105 (store ?x103 44 30)))
 (let ((?x107 (store ?x105 45 31)))
 (let ((?x109 (store ?x107 46 31)))
 (let ((?x111 (store ?x109 47 29)))
 (let ((?x501 (select ?x111 ?x2338)))
 (let ((?x5712 (ite (or (= 22802 (+ x_months 24003)) (= 25202 (+ x_months 24003))) 28 ?x501)))
 (let (($x4847 (<= 0 x_beta)))
 (and $x4847 (< x_beta ?x5712))))))))))))))))))))))))))))))))))))))))))))))))))))))))
(assert
 (let (($x4847 (<= 0 x_beta)))
 (or (> x_months (- (+ (* 2023 12) 1) 24003)) (and (= x_months (- (+ (* 2023 12) 1) 24003)) $x4847))))
(assert
 (let (($x1936 (and (= x_months (- (+ (* 2023 12) 12) 24003)) (>= 30 x_beta))))
 (or (< x_months (- (+ (* 2023 12) 12) 24003)) $x1936)))
(assert
 (let ((?x5076 (+ x_months 0)))
(let ((?x1774 (mod ?x5076 48)))
(let ((?x4467 (ite (> 22803 (+ ?x5076 24003)) 1 (ite (<= 25203 (+ ?x5076 24003)) (- 1) 0))))
(let ((?x18 ((as const (Array Int Int)) 0)))
(let ((?x20 (store ?x18 0 31)))
(let ((?x23 (store ?x20 1 30)))
(let ((?x25 (store ?x23 2 31)))
(let ((?x26 (store ?x25 3 30)))
(let ((?x28 (store ?x26 4 31)))
(let ((?x30 (store ?x28 5 31)))
(let ((?x32 (store ?x30 6 30)))
(let ((?x34 (store ?x32 7 31)))
(let ((?x36 (store ?x34 8 30)))
(let ((?x38 (store ?x36 9 31)))
(let ((?x40 (store ?x38 10 31)))
(let ((?x43 (store ?x40 11 28)))
(let ((?x44 (store ?x43 12 31)))
(let ((?x46 (store ?x44 13 30)))
(let ((?x48 (store ?x46 14 31)))
(let ((?x50 (store ?x48 15 30)))
(let ((?x52 (store ?x50 16 31)))
(let ((?x54 (store ?x52 17 31)))
(let ((?x56 (store ?x54 18 30)))
(let ((?x58 (store ?x56 19 31)))
(let ((?x60 (store ?x58 20 30)))
(let ((?x62 (store ?x60 21 31)))
(let ((?x64 (store ?x62 22 31)))
(let ((?x66 (store ?x64 23 28)))
(let ((?x68 (store ?x66 24 31)))
(let ((?x70 (store ?x68 25 30)))
(let ((?x72 (store ?x70 26 31)))
(let ((?x74 (store ?x72 27 30)))
(let ((?x75 (store ?x74 28 31)))
(let ((?x77 (store ?x75 29 31)))
(let ((?x78 (store ?x77 30 30)))
(let ((?x79 (store ?x78 31 31)))
(let ((?x81 (store ?x79 32 30)))
(let ((?x83 (store ?x81 33 31)))
(let ((?x85 (store ?x83 34 31)))
(let ((?x87 (store ?x85 35 28)))
(let ((?x89 (store ?x87 36 31)))
(let ((?x91 (store ?x89 37 30)))
(let ((?x93 (store ?x91 38 31)))
(let ((?x95 (store ?x93 39 30)))
(let ((?x97 (store ?x95 40 31)))
(let ((?x99 (store ?x97 41 31)))
(let ((?x101 (store ?x99 42 30)))
(let ((?x103 (store ?x101 43 31)))
(let ((?x105 (store ?x103 44 30)))
(let ((?x107 (store ?x105 45 31)))
(let ((?x109 (store ?x107 46 31)))
(let ((?x111 (store ?x109 47 29)))
(let ((?x4568 (ite (or (= 22802 (+ ?x5076 24003)) (= 25202 (+ ?x5076 24003))) 28 (select ?x111 ?x1774))))
(let ((?x3214 (- ?x4568 1)))
(let (($x4975 (> 0 x_beta)))
(let ((?x117 (store (store (store (store ?x18 0 0) 1 31) 2 61) 3 92)))
(let ((?x125 (store (store (store (store ?x117 4 122) 5 153) 6 184) 7 214)))
(let ((?x133 (store (store (store (store ?x125 8 245) 9 275) 10 306) 11 337)))
(let ((?x141 (store (store (store (store ?x133 12 365) 13 396) 14 426) 15 457)))
(let ((?x149 (store (store (store (store ?x141 16 487) 17 518) 18 549) 19 579)))
(let ((?x157 (store (store (store (store ?x149 20 610) 21 640) 22 671) 23 702)))
(let ((?x165 (store (store (store (store ?x157 24 730) 25 761) 26 791) 27 822)))
(let ((?x173 (store (store (store (store ?x165 28 852) 29 883) 30 914) 31 944)))
(let ((?x181 (store (store (store (store ?x173 32 975) 33 1005) 34 1036) 35 1067)))
(let ((?x189 (store (store (store (store ?x181 36 1095) 37 1126) 38 1156) 39 1187)))
(let ((?x197 (store (store (store (store ?x189 40 1217) 41 1248) 42 1279) 43 1309)))
(let ((?x205 (store (store (store (store ?x197 44 1340) 45 1370) 46 1401) 47 1432)))
(let ((?x2681 (+ (select ?x205 ?x1774) (ite $x4975 0 (ite (> x_beta ?x3214) ?x3214 x_beta)))))
(let ((?x1406 (+ (+ ?x2681 ?x4467) 61)))
(let ((?x5948 (+ ?x5076 (* (div ?x1406 1461) 48))))
(let ((?x5841 (+ (+ ?x5948 (- 1 ?x1774)) 24003)))
(let ((?x4498 (select ?x205 1)))
(let ((?x1038 (mod ?x1406 1461)))
(let (($x2933 (>= ?x1038 (+ ?x4498 (ite (> 22803 ?x5841) 1 (ite (<= 25203 ?x5841) (- 1) 0))))))
(let ((?x4012 (ite (> 22803 (+ (+ ?x5948 (- 2 ?x1774)) 24003)) 1 (ite (<= 25203 (+ (+ ?x5948 (- 2 ?x1774)) 24003)) (- 1) 0))))
(let ((?x4303 (select ?x205 2)))
(let ((?x4473 (ite (> 22803 (+ (+ ?x5948 (- 3 ?x1774)) 24003)) 1 (ite (<= 25203 (+ (+ ?x5948 (- 3 ?x1774)) 24003)) (- 1) 0))))
(let ((?x1960 (select ?x205 3)))
(let ((?x2195 (ite (>= ?x1038 (+ ?x1960 ?x4473)) 3 (ite (>= ?x1038 (+ ?x4303 ?x4012)) 2 (ite $x2933 1 0)))))
(let ((?x3855 (ite (> 22803 (+ (+ ?x5948 (- 4 ?x1774)) 24003)) 1 (ite (<= 25203 (+ (+ ?x5948 (- 4 ?x1774)) 24003)) (- 1) 0))))
(let ((?x1789 (select ?x205 4)))
(let ((?x5995 (ite (> 22803 (+ (+ ?x5948 (- 5 ?x1774)) 24003)) 1 (ite (<= 25203 (+ (+ ?x5948 (- 5 ?x1774)) 24003)) (- 1) 0))))
(let ((?x4515 (select ?x205 5)))
(let ((?x1864 (ite (>= ?x1038 (+ ?x4515 ?x5995)) 5 (ite (>= ?x1038 (+ ?x1789 ?x3855)) 4 ?x2195))))
(let ((?x6052 (ite (> 22803 (+ (+ ?x5948 (- 6 ?x1774)) 24003)) 1 (ite (<= 25203 (+ (+ ?x5948 (- 6 ?x1774)) 24003)) (- 1) 0))))
(let ((?x3693 (select ?x205 6)))
(let ((?x2114 (ite (> 22803 (+ (+ ?x5948 (- 7 ?x1774)) 24003)) 1 (ite (<= 25203 (+ (+ ?x5948 (- 7 ?x1774)) 24003)) (- 1) 0))))
(let ((?x4323 (select ?x205 7)))
(let ((?x5883 (ite (>= ?x1038 (+ ?x4323 ?x2114)) 7 (ite (>= ?x1038 (+ ?x3693 ?x6052)) 6 ?x1864))))
(let ((?x2208 (ite (> 22803 (+ (+ ?x5948 (- 8 ?x1774)) 24003)) 1 (ite (<= 25203 (+ (+ ?x5948 (- 8 ?x1774)) 24003)) (- 1) 0))))
(let ((?x4461 (select ?x205 8)))
(let ((?x5474 (ite (> 22803 (+ (+ ?x5948 (- 9 ?x1774)) 24003)) 1 (ite (<= 25203 (+ (+ ?x5948 (- 9 ?x1774)) 24003)) (- 1) 0))))
(let ((?x4540 (select ?x205 9)))
(let ((?x2935 (ite (>= ?x1038 (+ ?x4540 ?x5474)) 9 (ite (>= ?x1038 (+ ?x4461 ?x2208)) 8 ?x5883))))
(let ((?x5400 (ite (> 22803 (+ (+ ?x5948 (- 10 ?x1774)) 24003)) 1 (ite (<= 25203 (+ (+ ?x5948 (- 10 ?x1774)) 24003)) (- 1) 0))))
(let ((?x3193 (select ?x205 10)))
(let ((?x5677 (ite (> 22803 (+ (+ ?x5948 (- 11 ?x1774)) 24003)) 1 (ite (<= 25203 (+ (+ ?x5948 (- 11 ?x1774)) 24003)) (- 1) 0))))
(let ((?x3724 (select ?x205 11)))
(let ((?x2148 (ite (>= ?x1038 (+ ?x3724 ?x5677)) 11 (ite (>= ?x1038 (+ ?x3193 ?x5400)) 10 ?x2935))))
(let ((?x3377 (ite (> 22803 (+ (+ ?x5948 (- 12 ?x1774)) 24003)) 1 (ite (<= 25203 (+ (+ ?x5948 (- 12 ?x1774)) 24003)) (- 1) 0))))
(let ((?x1999 (select ?x205 12)))
(let ((?x4134 (ite (> 22803 (+ (+ ?x5948 (- 13 ?x1774)) 24003)) 1 (ite (<= 25203 (+ (+ ?x5948 (- 13 ?x1774)) 24003)) (- 1) 0))))
(let ((?x4720 (select ?x205 13)))
(let ((?x3321 (ite (>= ?x1038 (+ ?x4720 ?x4134)) 13 (ite (>= ?x1038 (+ ?x1999 ?x3377)) 12 ?x2148))))
(let ((?x3353 (ite (> 22803 (+ (+ ?x5948 (- 14 ?x1774)) 24003)) 1 (ite (<= 25203 (+ (+ ?x5948 (- 14 ?x1774)) 24003)) (- 1) 0))))
(let ((?x1510 (select ?x205 14)))
(let ((?x3688 (ite (> 22803 (+ (+ ?x5948 (- 15 ?x1774)) 24003)) 1 (ite (<= 25203 (+ (+ ?x5948 (- 15 ?x1774)) 24003)) (- 1) 0))))
(let ((?x4443 (select ?x205 15)))
(let ((?x1841 (ite (>= ?x1038 (+ ?x4443 ?x3688)) 15 (ite (>= ?x1038 (+ ?x1510 ?x3353)) 14 ?x3321))))
(let ((?x1732 (ite (> 22803 (+ (+ ?x5948 (- 16 ?x1774)) 24003)) 1 (ite (<= 25203 (+ (+ ?x5948 (- 16 ?x1774)) 24003)) (- 1) 0))))
(let ((?x942 (select ?x205 16)))
(let ((?x5844 (ite (> 22803 (+ (+ ?x5948 (- 17 ?x1774)) 24003)) 1 (ite (<= 25203 (+ (+ ?x5948 (- 17 ?x1774)) 24003)) (- 1) 0))))
(let ((?x4403 (select ?x205 17)))
(let ((?x3845 (ite (>= ?x1038 (+ ?x4403 ?x5844)) 17 (ite (>= ?x1038 (+ ?x942 ?x1732)) 16 ?x1841))))
(let ((?x3727 (ite (> 22803 (+ (+ ?x5948 (- 18 ?x1774)) 24003)) 1 (ite (<= 25203 (+ (+ ?x5948 (- 18 ?x1774)) 24003)) (- 1) 0))))
(let ((?x3957 (select ?x205 18)))
(let ((?x2611 (ite (> 22803 (+ (+ ?x5948 (- 19 ?x1774)) 24003)) 1 (ite (<= 25203 (+ (+ ?x5948 (- 19 ?x1774)) 24003)) (- 1) 0))))
(let ((?x1532 (select ?x205 19)))
(let ((?x2063 (ite (>= ?x1038 (+ ?x1532 ?x2611)) 19 (ite (>= ?x1038 (+ ?x3957 ?x3727)) 18 ?x3845))))
(let ((?x4408 (ite (> 22803 (+ (+ ?x5948 (- 20 ?x1774)) 24003)) 1 (ite (<= 25203 (+ (+ ?x5948 (- 20 ?x1774)) 24003)) (- 1) 0))))
(let ((?x5685 (select ?x205 20)))
(let ((?x4667 (ite (> 22803 (+ (+ ?x5948 (- 21 ?x1774)) 24003)) 1 (ite (<= 25203 (+ (+ ?x5948 (- 21 ?x1774)) 24003)) (- 1) 0))))
(let ((?x1622 (select ?x205 21)))
(let ((?x4882 (ite (>= ?x1038 (+ ?x1622 ?x4667)) 21 (ite (>= ?x1038 (+ ?x5685 ?x4408)) 20 ?x2063))))
(let ((?x3554 (ite (> 22803 (+ (+ ?x5948 (- 22 ?x1774)) 24003)) 1 (ite (<= 25203 (+ (+ ?x5948 (- 22 ?x1774)) 24003)) (- 1) 0))))
(let ((?x4530 (select ?x205 22)))
(let ((?x655 (ite (> 22803 (+ (+ ?x5948 (- 23 ?x1774)) 24003)) 1 (ite (<= 25203 (+ (+ ?x5948 (- 23 ?x1774)) 24003)) (- 1) 0))))
(let ((?x4496 (select ?x205 23)))
(let ((?x1998 (ite (>= ?x1038 (+ ?x4496 ?x655)) 23 (ite (>= ?x1038 (+ ?x4530 ?x3554)) 22 ?x4882))))
(let ((?x3015 (ite (> 22803 (+ (+ ?x5948 (- 24 ?x1774)) 24003)) 1 (ite (<= 25203 (+ (+ ?x5948 (- 24 ?x1774)) 24003)) (- 1) 0))))
(let ((?x4666 (select ?x205 24)))
(let ((?x4881 (ite (> 22803 (+ (+ ?x5948 (- 25 ?x1774)) 24003)) 1 (ite (<= 25203 (+ (+ ?x5948 (- 25 ?x1774)) 24003)) (- 1) 0))))
(let ((?x4776 (select ?x205 25)))
(let ((?x1380 (ite (>= ?x1038 (+ ?x4776 ?x4881)) 25 (ite (>= ?x1038 (+ ?x4666 ?x3015)) 24 ?x1998))))
(let ((?x3501 (ite (> 22803 (+ (+ ?x5948 (- 26 ?x1774)) 24003)) 1 (ite (<= 25203 (+ (+ ?x5948 (- 26 ?x1774)) 24003)) (- 1) 0))))
(let ((?x2395 (select ?x205 26)))
(let ((?x1619 (ite (> 22803 (+ (+ ?x5948 (- 27 ?x1774)) 24003)) 1 (ite (<= 25203 (+ (+ ?x5948 (- 27 ?x1774)) 24003)) (- 1) 0))))
(let ((?x5717 (select ?x205 27)))
(let ((?x2975 (ite (>= ?x1038 (+ ?x5717 ?x1619)) 27 (ite (>= ?x1038 (+ ?x2395 ?x3501)) 26 ?x1380))))
(let ((?x1508 (ite (> 22803 (+ (+ ?x5948 (- 28 ?x1774)) 24003)) 1 (ite (<= 25203 (+ (+ ?x5948 (- 28 ?x1774)) 24003)) (- 1) 0))))
(let ((?x1733 (select ?x205 28)))
(let ((?x3496 (ite (> 22803 (+ (+ ?x5948 (- 29 ?x1774)) 24003)) 1 (ite (<= 25203 (+ (+ ?x5948 (- 29 ?x1774)) 24003)) (- 1) 0))))
(let ((?x3456 (select ?x205 29)))
(let ((?x355 (ite (>= ?x1038 (+ ?x3456 ?x3496)) 29 (ite (>= ?x1038 (+ ?x1733 ?x1508)) 28 ?x2975))))
(let ((?x5508 (ite (> 22803 (+ (+ ?x5948 (- 30 ?x1774)) 24003)) 1 (ite (<= 25203 (+ (+ ?x5948 (- 30 ?x1774)) 24003)) (- 1) 0))))
(let ((?x3870 (select ?x205 30)))
(let ((?x2358 (ite (> 22803 (+ (+ ?x5948 (- 31 ?x1774)) 24003)) 1 (ite (<= 25203 (+ (+ ?x5948 (- 31 ?x1774)) 24003)) (- 1) 0))))
(let ((?x5413 (select ?x205 31)))
(let ((?x3001 (ite (>= ?x1038 (+ ?x5413 ?x2358)) 31 (ite (>= ?x1038 (+ ?x3870 ?x5508)) 30 ?x355))))
(let ((?x2305 (ite (> 22803 (+ (+ ?x5948 (- 32 ?x1774)) 24003)) 1 (ite (<= 25203 (+ (+ ?x5948 (- 32 ?x1774)) 24003)) (- 1) 0))))
(let ((?x2554 (select ?x205 32)))
(let ((?x6077 (ite (> 22803 (+ (+ ?x5948 (- 33 ?x1774)) 24003)) 1 (ite (<= 25203 (+ (+ ?x5948 (- 33 ?x1774)) 24003)) (- 1) 0))))
(let ((?x6247 (select ?x205 33)))
(let ((?x5398 (ite (>= ?x1038 (+ ?x6247 ?x6077)) 33 (ite (>= ?x1038 (+ ?x2554 ?x2305)) 32 ?x3001))))
(let ((?x2000 (ite (> 22803 (+ (+ ?x5948 (- 34 ?x1774)) 24003)) 1 (ite (<= 25203 (+ (+ ?x5948 (- 34 ?x1774)) 24003)) (- 1) 0))))
(let ((?x3298 (select ?x205 34)))
(let ((?x3744 (ite (> 22803 (+ (+ ?x5948 (- 35 ?x1774)) 24003)) 1 (ite (<= 25203 (+ (+ ?x5948 (- 35 ?x1774)) 24003)) (- 1) 0))))
(let ((?x3250 (select ?x205 35)))
(let ((?x4627 (ite (>= ?x1038 (+ ?x3250 ?x3744)) 35 (ite (>= ?x1038 (+ ?x3298 ?x2000)) 34 ?x5398))))
(let ((?x4288 (ite (> 22803 (+ (+ ?x5948 (- 36 ?x1774)) 24003)) 1 (ite (<= 25203 (+ (+ ?x5948 (- 36 ?x1774)) 24003)) (- 1) 0))))
(let ((?x4941 (select ?x205 36)))
(let ((?x6069 (ite (> 22803 (+ (+ ?x5948 (- 37 ?x1774)) 24003)) 1 (ite (<= 25203 (+ (+ ?x5948 (- 37 ?x1774)) 24003)) (- 1) 0))))
(let ((?x6087 (select ?x205 37)))
(let ((?x2213 (ite (>= ?x1038 (+ ?x6087 ?x6069)) 37 (ite (>= ?x1038 (+ ?x4941 ?x4288)) 36 ?x4627))))
(let ((?x3517 (ite (> 22803 (+ (+ ?x5948 (- 38 ?x1774)) 24003)) 1 (ite (<= 25203 (+ (+ ?x5948 (- 38 ?x1774)) 24003)) (- 1) 0))))
(let ((?x3830 (select ?x205 38)))
(let ((?x6053 (ite (> 22803 (+ (+ ?x5948 (- 39 ?x1774)) 24003)) 1 (ite (<= 25203 (+ (+ ?x5948 (- 39 ?x1774)) 24003)) (- 1) 0))))
(let ((?x5745 (select ?x205 39)))
(let ((?x3146 (ite (>= ?x1038 (+ ?x5745 ?x6053)) 39 (ite (>= ?x1038 (+ ?x3830 ?x3517)) 38 ?x2213))))
(let ((?x3002 (ite (> 22803 (+ (+ ?x5948 (- 40 ?x1774)) 24003)) 1 (ite (<= 25203 (+ (+ ?x5948 (- 40 ?x1774)) 24003)) (- 1) 0))))
(let ((?x1040 (select ?x205 40)))
(let ((?x431 (ite (> 22803 (+ (+ ?x5948 (- 41 ?x1774)) 24003)) 1 (ite (<= 25203 (+ (+ ?x5948 (- 41 ?x1774)) 24003)) (- 1) 0))))
(let ((?x5960 (select ?x205 41)))
(let ((?x5738 (ite (>= ?x1038 (+ ?x5960 ?x431)) 41 (ite (>= ?x1038 (+ ?x1040 ?x3002)) 40 ?x3146))))
(let ((?x4176 (ite (> 22803 (+ (+ ?x5948 (- 42 ?x1774)) 24003)) 1 (ite (<= 25203 (+ (+ ?x5948 (- 42 ?x1774)) 24003)) (- 1) 0))))
(let ((?x5271 (select ?x205 42)))
(let ((?x5420 (ite (> 22803 (+ (+ ?x5948 (- 43 ?x1774)) 24003)) 1 (ite (<= 25203 (+ (+ ?x5948 (- 43 ?x1774)) 24003)) (- 1) 0))))
(let ((?x1646 (select ?x205 43)))
(let ((?x337 (ite (>= ?x1038 (+ ?x1646 ?x5420)) 43 (ite (>= ?x1038 (+ ?x5271 ?x4176)) 42 ?x5738))))
(let ((?x4673 (ite (> 22803 (+ (+ ?x5948 (- 44 ?x1774)) 24003)) 1 (ite (<= 25203 (+ (+ ?x5948 (- 44 ?x1774)) 24003)) (- 1) 0))))
(let ((?x6286 (select ?x205 44)))
(let ((?x4860 (ite (> 22803 (+ (+ ?x5948 (- 45 ?x1774)) 24003)) 1 (ite (<= 25203 (+ (+ ?x5948 (- 45 ?x1774)) 24003)) (- 1) 0))))
(let ((?x2004 (select ?x205 45)))
(let ((?x1846 (ite (>= ?x1038 (+ ?x2004 ?x4860)) 45 (ite (>= ?x1038 (+ ?x6286 ?x4673)) 44 ?x337))))
(let ((?x1279 (ite (> 22803 (+ (+ ?x5948 (- 46 ?x1774)) 24003)) 1 (ite (<= 25203 (+ (+ ?x5948 (- 46 ?x1774)) 24003)) (- 1) 0))))
(let ((?x3234 (select ?x205 46)))
(let ((?x4120 (ite (> 22803 (+ (+ ?x5948 (- 47 ?x1774)) 24003)) 1 (ite (<= 25203 (+ (+ ?x5948 (- 47 ?x1774)) 24003)) (- 1) 0))))
(let ((?x5981 (select ?x205 47)))
(let ((?x1322 (ite (>= ?x1038 (+ ?x5981 ?x4120)) 47 (ite (>= ?x1038 (+ ?x3234 ?x1279)) 46 ?x1846))))
(let ((?x4052 (+ ?x5948 (- ?x1322 ?x1774))))
(let ((?x1513 (+ ?x4052 24003)))
(let ((?x1772 (+ (select ?x205 ?x1322) (ite (> 22803 ?x1513) 1 (ite (<= 25203 ?x1513) (- 1) 0)))))
(let ((?x5896 (- ?x1038 ?x1772)))
(let ((?x4681 (ite (or (= 22802 ?x1513) (= 25202 ?x1513)) 28 (select ?x111 ?x1322))))
(let ((?x4380 (+ x_months 2)))
(let ((?x4295 (mod ?x4380 48)))
(let ((?x2117 (ite (> 22803 (+ ?x4380 24003)) 1 (ite (<= 25203 (+ ?x4380 24003)) (- 1) 0))))
(let ((?x3345 (ite (or (= 22802 (+ ?x4380 24003)) (= 25202 (+ ?x4380 24003))) 28 (select ?x111 ?x4295))))
(let ((?x5856 (- ?x3345 1)))
(let ((?x5668 (+ (select ?x205 ?x4295) (ite $x4975 0 (ite (> x_beta ?x5856) ?x5856 x_beta)))))
(let ((?x4567 (+ (+ ?x5668 ?x2117) 0)))
(let ((?x3628 (+ ?x4380 (* (div ?x4567 1461) 48))))
(let ((?x1643 (+ (+ ?x3628 (- 1 ?x4295)) 24003)))
(let ((?x4000 (mod ?x4567 1461)))
(let (($x4694 (>= ?x4000 (+ ?x4498 (ite (> 22803 ?x1643) 1 (ite (<= 25203 ?x1643) (- 1) 0))))))
(let ((?x2288 (ite (> 22803 (+ (+ ?x3628 (- 2 ?x4295)) 24003)) 1 (ite (<= 25203 (+ (+ ?x3628 (- 2 ?x4295)) 24003)) (- 1) 0))))
(let ((?x4128 (ite (> 22803 (+ (+ ?x3628 (- 3 ?x4295)) 24003)) 1 (ite (<= 25203 (+ (+ ?x3628 (- 3 ?x4295)) 24003)) (- 1) 0))))
(let ((?x4108 (ite (>= ?x4000 (+ ?x1960 ?x4128)) 3 (ite (>= ?x4000 (+ ?x4303 ?x2288)) 2 (ite $x4694 1 0)))))
(let ((?x2108 (ite (> 22803 (+ (+ ?x3628 (- 4 ?x4295)) 24003)) 1 (ite (<= 25203 (+ (+ ?x3628 (- 4 ?x4295)) 24003)) (- 1) 0))))
(let ((?x4495 (ite (> 22803 (+ (+ ?x3628 (- 5 ?x4295)) 24003)) 1 (ite (<= 25203 (+ (+ ?x3628 (- 5 ?x4295)) 24003)) (- 1) 0))))
(let ((?x3215 (ite (>= ?x4000 (+ ?x4515 ?x4495)) 5 (ite (>= ?x4000 (+ ?x1789 ?x2108)) 4 ?x4108))))
(let ((?x2575 (ite (> 22803 (+ (+ ?x3628 (- 6 ?x4295)) 24003)) 1 (ite (<= 25203 (+ (+ ?x3628 (- 6 ?x4295)) 24003)) (- 1) 0))))
(let ((?x1274 (ite (> 22803 (+ (+ ?x3628 (- 7 ?x4295)) 24003)) 1 (ite (<= 25203 (+ (+ ?x3628 (- 7 ?x4295)) 24003)) (- 1) 0))))
(let ((?x2549 (ite (>= ?x4000 (+ ?x4323 ?x1274)) 7 (ite (>= ?x4000 (+ ?x3693 ?x2575)) 6 ?x3215))))
(let ((?x4470 (ite (> 22803 (+ (+ ?x3628 (- 8 ?x4295)) 24003)) 1 (ite (<= 25203 (+ (+ ?x3628 (- 8 ?x4295)) 24003)) (- 1) 0))))
(let ((?x4020 (ite (> 22803 (+ (+ ?x3628 (- 9 ?x4295)) 24003)) 1 (ite (<= 25203 (+ (+ ?x3628 (- 9 ?x4295)) 24003)) (- 1) 0))))
(let ((?x387 (ite (>= ?x4000 (+ ?x4540 ?x4020)) 9 (ite (>= ?x4000 (+ ?x4461 ?x4470)) 8 ?x2549))))
(let ((?x856 (ite (> 22803 (+ (+ ?x3628 (- 10 ?x4295)) 24003)) 1 (ite (<= 25203 (+ (+ ?x3628 (- 10 ?x4295)) 24003)) (- 1) 0))))
(let ((?x2094 (ite (> 22803 (+ (+ ?x3628 (- 11 ?x4295)) 24003)) 1 (ite (<= 25203 (+ (+ ?x3628 (- 11 ?x4295)) 24003)) (- 1) 0))))
(let ((?x4165 (ite (>= ?x4000 (+ ?x3724 ?x2094)) 11 (ite (>= ?x4000 (+ ?x3193 ?x856)) 10 ?x387))))
(let ((?x2343 (ite (> 22803 (+ (+ ?x3628 (- 12 ?x4295)) 24003)) 1 (ite (<= 25203 (+ (+ ?x3628 (- 12 ?x4295)) 24003)) (- 1) 0))))
(let ((?x4642 (ite (> 22803 (+ (+ ?x3628 (- 13 ?x4295)) 24003)) 1 (ite (<= 25203 (+ (+ ?x3628 (- 13 ?x4295)) 24003)) (- 1) 0))))
(let ((?x1112 (ite (>= ?x4000 (+ ?x4720 ?x4642)) 13 (ite (>= ?x4000 (+ ?x1999 ?x2343)) 12 ?x4165))))
(let ((?x4434 (ite (> 22803 (+ (+ ?x3628 (- 14 ?x4295)) 24003)) 1 (ite (<= 25203 (+ (+ ?x3628 (- 14 ?x4295)) 24003)) (- 1) 0))))
(let ((?x1795 (ite (> 22803 (+ (+ ?x3628 (- 15 ?x4295)) 24003)) 1 (ite (<= 25203 (+ (+ ?x3628 (- 15 ?x4295)) 24003)) (- 1) 0))))
(let ((?x1403 (ite (>= ?x4000 (+ ?x4443 ?x1795)) 15 (ite (>= ?x4000 (+ ?x1510 ?x4434)) 14 ?x1112))))
(let ((?x1687 (ite (> 22803 (+ (+ ?x3628 (- 16 ?x4295)) 24003)) 1 (ite (<= 25203 (+ (+ ?x3628 (- 16 ?x4295)) 24003)) (- 1) 0))))
(let ((?x3369 (ite (> 22803 (+ (+ ?x3628 (- 17 ?x4295)) 24003)) 1 (ite (<= 25203 (+ (+ ?x3628 (- 17 ?x4295)) 24003)) (- 1) 0))))
(let ((?x2131 (ite (>= ?x4000 (+ ?x4403 ?x3369)) 17 (ite (>= ?x4000 (+ ?x942 ?x1687)) 16 ?x1403))))
(let ((?x5860 (ite (> 22803 (+ (+ ?x3628 (- 18 ?x4295)) 24003)) 1 (ite (<= 25203 (+ (+ ?x3628 (- 18 ?x4295)) 24003)) (- 1) 0))))
(let ((?x4008 (ite (> 22803 (+ (+ ?x3628 (- 19 ?x4295)) 24003)) 1 (ite (<= 25203 (+ (+ ?x3628 (- 19 ?x4295)) 24003)) (- 1) 0))))
(let ((?x6032 (ite (>= ?x4000 (+ ?x1532 ?x4008)) 19 (ite (>= ?x4000 (+ ?x3957 ?x5860)) 18 ?x2131))))
(let ((?x1336 (ite (> 22803 (+ (+ ?x3628 (- 20 ?x4295)) 24003)) 1 (ite (<= 25203 (+ (+ ?x3628 (- 20 ?x4295)) 24003)) (- 1) 0))))
(let ((?x4562 (ite (> 22803 (+ (+ ?x3628 (- 21 ?x4295)) 24003)) 1 (ite (<= 25203 (+ (+ ?x3628 (- 21 ?x4295)) 24003)) (- 1) 0))))
(let ((?x2856 (ite (>= ?x4000 (+ ?x1622 ?x4562)) 21 (ite (>= ?x4000 (+ ?x5685 ?x1336)) 20 ?x6032))))
(let ((?x1961 (ite (> 22803 (+ (+ ?x3628 (- 22 ?x4295)) 24003)) 1 (ite (<= 25203 (+ (+ ?x3628 (- 22 ?x4295)) 24003)) (- 1) 0))))
(let ((?x2176 (ite (> 22803 (+ (+ ?x3628 (- 23 ?x4295)) 24003)) 1 (ite (<= 25203 (+ (+ ?x3628 (- 23 ?x4295)) 24003)) (- 1) 0))))
(let ((?x3406 (ite (>= ?x4000 (+ ?x4496 ?x2176)) 23 (ite (>= ?x4000 (+ ?x4530 ?x1961)) 22 ?x2856))))
(let ((?x3043 (ite (> 22803 (+ (+ ?x3628 (- 24 ?x4295)) 24003)) 1 (ite (<= 25203 (+ (+ ?x3628 (- 24 ?x4295)) 24003)) (- 1) 0))))
(let ((?x5731 (ite (> 22803 (+ (+ ?x3628 (- 25 ?x4295)) 24003)) 1 (ite (<= 25203 (+ (+ ?x3628 (- 25 ?x4295)) 24003)) (- 1) 0))))
(let ((?x1272 (ite (>= ?x4000 (+ ?x4776 ?x5731)) 25 (ite (>= ?x4000 (+ ?x4666 ?x3043)) 24 ?x3406))))
(let ((?x1542 (ite (> 22803 (+ (+ ?x3628 (- 26 ?x4295)) 24003)) 1 (ite (<= 25203 (+ (+ ?x3628 (- 26 ?x4295)) 24003)) (- 1) 0))))
(let ((?x5374 (ite (> 22803 (+ (+ ?x3628 (- 27 ?x4295)) 24003)) 1 (ite (<= 25203 (+ (+ ?x3628 (- 27 ?x4295)) 24003)) (- 1) 0))))
(let ((?x2529 (ite (>= ?x4000 (+ ?x5717 ?x5374)) 27 (ite (>= ?x4000 (+ ?x2395 ?x1542)) 26 ?x1272))))
(let ((?x3903 (ite (> 22803 (+ (+ ?x3628 (- 28 ?x4295)) 24003)) 1 (ite (<= 25203 (+ (+ ?x3628 (- 28 ?x4295)) 24003)) (- 1) 0))))
(let ((?x6160 (ite (> 22803 (+ (+ ?x3628 (- 29 ?x4295)) 24003)) 1 (ite (<= 25203 (+ (+ ?x3628 (- 29 ?x4295)) 24003)) (- 1) 0))))
(let ((?x4641 (ite (>= ?x4000 (+ ?x3456 ?x6160)) 29 (ite (>= ?x4000 (+ ?x1733 ?x3903)) 28 ?x2529))))
(let ((?x1558 (ite (> 22803 (+ (+ ?x3628 (- 30 ?x4295)) 24003)) 1 (ite (<= 25203 (+ (+ ?x3628 (- 30 ?x4295)) 24003)) (- 1) 0))))
(let ((?x5684 (ite (> 22803 (+ (+ ?x3628 (- 31 ?x4295)) 24003)) 1 (ite (<= 25203 (+ (+ ?x3628 (- 31 ?x4295)) 24003)) (- 1) 0))))
(let ((?x5773 (ite (>= ?x4000 (+ ?x5413 ?x5684)) 31 (ite (>= ?x4000 (+ ?x3870 ?x1558)) 30 ?x4641))))
(let ((?x4938 (ite (> 22803 (+ (+ ?x3628 (- 32 ?x4295)) 24003)) 1 (ite (<= 25203 (+ (+ ?x3628 (- 32 ?x4295)) 24003)) (- 1) 0))))
(let ((?x3479 (ite (> 22803 (+ (+ ?x3628 (- 33 ?x4295)) 24003)) 1 (ite (<= 25203 (+ (+ ?x3628 (- 33 ?x4295)) 24003)) (- 1) 0))))
(let ((?x5941 (ite (>= ?x4000 (+ ?x6247 ?x3479)) 33 (ite (>= ?x4000 (+ ?x2554 ?x4938)) 32 ?x5773))))
(let ((?x3974 (ite (> 22803 (+ (+ ?x3628 (- 34 ?x4295)) 24003)) 1 (ite (<= 25203 (+ (+ ?x3628 (- 34 ?x4295)) 24003)) (- 1) 0))))
(let ((?x4482 (ite (> 22803 (+ (+ ?x3628 (- 35 ?x4295)) 24003)) 1 (ite (<= 25203 (+ (+ ?x3628 (- 35 ?x4295)) 24003)) (- 1) 0))))
(let ((?x1946 (ite (>= ?x4000 (+ ?x3250 ?x4482)) 35 (ite (>= ?x4000 (+ ?x3298 ?x3974)) 34 ?x5941))))
(let ((?x3275 (ite (> 22803 (+ (+ ?x3628 (- 36 ?x4295)) 24003)) 1 (ite (<= 25203 (+ (+ ?x3628 (- 36 ?x4295)) 24003)) (- 1) 0))))
(let ((?x2129 (ite (> 22803 (+ (+ ?x3628 (- 37 ?x4295)) 24003)) 1 (ite (<= 25203 (+ (+ ?x3628 (- 37 ?x4295)) 24003)) (- 1) 0))))
(let ((?x4015 (ite (>= ?x4000 (+ ?x6087 ?x2129)) 37 (ite (>= ?x4000 (+ ?x4941 ?x3275)) 36 ?x1946))))
(let ((?x3007 (ite (> 22803 (+ (+ ?x3628 (- 38 ?x4295)) 24003)) 1 (ite (<= 25203 (+ (+ ?x3628 (- 38 ?x4295)) 24003)) (- 1) 0))))
(let ((?x416 (ite (> 22803 (+ (+ ?x3628 (- 39 ?x4295)) 24003)) 1 (ite (<= 25203 (+ (+ ?x3628 (- 39 ?x4295)) 24003)) (- 1) 0))))
(let ((?x5961 (ite (>= ?x4000 (+ ?x5745 ?x416)) 39 (ite (>= ?x4000 (+ ?x3830 ?x3007)) 38 ?x4015))))
(let ((?x3743 (ite (> 22803 (+ (+ ?x3628 (- 40 ?x4295)) 24003)) 1 (ite (<= 25203 (+ (+ ?x3628 (- 40 ?x4295)) 24003)) (- 1) 0))))
(let ((?x6014 (ite (> 22803 (+ (+ ?x3628 (- 41 ?x4295)) 24003)) 1 (ite (<= 25203 (+ (+ ?x3628 (- 41 ?x4295)) 24003)) (- 1) 0))))
(let ((?x5967 (ite (>= ?x4000 (+ ?x5960 ?x6014)) 41 (ite (>= ?x4000 (+ ?x1040 ?x3743)) 40 ?x5961))))
(let ((?x5830 (ite (> 22803 (+ (+ ?x3628 (- 42 ?x4295)) 24003)) 1 (ite (<= 25203 (+ (+ ?x3628 (- 42 ?x4295)) 24003)) (- 1) 0))))
(let ((?x6011 (ite (> 22803 (+ (+ ?x3628 (- 43 ?x4295)) 24003)) 1 (ite (<= 25203 (+ (+ ?x3628 (- 43 ?x4295)) 24003)) (- 1) 0))))
(let ((?x5442 (ite (>= ?x4000 (+ ?x1646 ?x6011)) 43 (ite (>= ?x4000 (+ ?x5271 ?x5830)) 42 ?x5967))))
(let ((?x2650 (ite (> 22803 (+ (+ ?x3628 (- 44 ?x4295)) 24003)) 1 (ite (<= 25203 (+ (+ ?x3628 (- 44 ?x4295)) 24003)) (- 1) 0))))
(let ((?x3267 (ite (> 22803 (+ (+ ?x3628 (- 45 ?x4295)) 24003)) 1 (ite (<= 25203 (+ (+ ?x3628 (- 45 ?x4295)) 24003)) (- 1) 0))))
(let ((?x3924 (ite (>= ?x4000 (+ ?x2004 ?x3267)) 45 (ite (>= ?x4000 (+ ?x6286 ?x2650)) 44 ?x5442))))
(let ((?x2431 (ite (> 22803 (+ (+ ?x3628 (- 46 ?x4295)) 24003)) 1 (ite (<= 25203 (+ (+ ?x3628 (- 46 ?x4295)) 24003)) (- 1) 0))))
(let ((?x4141 (ite (> 22803 (+ (+ ?x3628 (- 47 ?x4295)) 24003)) 1 (ite (<= 25203 (+ (+ ?x3628 (- 47 ?x4295)) 24003)) (- 1) 0))))
(let ((?x927 (ite (>= ?x4000 (+ ?x5981 ?x4141)) 47 (ite (>= ?x4000 (+ ?x3234 ?x2431)) 46 ?x3924))))
(let ((?x1462 (+ ?x3628 (- ?x927 ?x4295))))
(let ((?x4686 (+ ?x1462 24003)))
(let ((?x5395 (+ (select ?x205 ?x927) (ite (> 22803 ?x4686) 1 (ite (<= 25203 ?x4686) (- 1) 0)))))
(let ((?x3738 (- ?x4000 ?x5395)))
(let ((?x4512 (ite (or (= 22802 ?x4686) (= 25202 ?x4686)) 28 (select ?x111 ?x927))))
(let (($x4628 (= (ite (= 1 (ite (>= ?x3738 ?x4512) 1 0)) (- ?x3738 ?x4512) ?x3738) (ite (= 1 (ite (>= ?x5896 ?x4681) 1 0)) (- ?x5896 ?x4681) ?x5896))))
(let (($x3934 (= (+ ?x1462 (ite (>= ?x3738 ?x4512) 1 0)) (+ ?x4052 (ite (>= ?x5896 ?x4681) 1 0)))))
(and $x3934 $x4628)))))))))))))))))))))))))))))))))))))))))))))))))))))))))))))))))))))))))))))))))))))))))))))))))))))))))))))))))))))))))))))))))))))))))))))))))))))))))))))))))))))))))))))))))))))))))))))))))))))))))))))))))))))))))))))))))))))))))))))))))))))))))))))))))))))))))))))))))))))))))))
(check-sat)
